(set-logic QF_S)
(declare-fun var0 () String)
(declare-fun var1 () String)
(declare-fun var2 () String)
(declare-fun var3 () String)
(declare-fun var4 () String)
(assert (= var0 (Concat "eQ5NE" (Concat var1 (Concat var2 "")))))
(assert (= var0 (Concat "^!NYY" (Concat var3 (Concat var4 "")))))
(check-sat)